CPXPARAM_Read_DataCheck                          1
Found incumbent of value 0.000000 after 0.00 sec. (0.02 ticks)
Tried aggregator 1 time.
MIP Presolve modified 1 coefficients.
Reduced MIP has 116 rows, 505 columns, and 2515 nonzeros.
Reduced MIP has 505 binaries, 0 generals, 0 SOSs, and 0 indicators.
Presolve time = 0.00 sec. (1.17 ticks)
Probing time = 0.00 sec. (0.75 ticks)
Tried aggregator 1 time.
Reduced MIP has 116 rows, 505 columns, and 2515 nonzeros.
Reduced MIP has 505 binaries, 0 generals, 0 SOSs, and 0 indicators.
Presolve time = 0.00 sec. (1.37 ticks)
Probing time = 0.00 sec. (0.75 ticks)
Clique table members: 600.
MIP emphasis: balance optimality and feasibility.
MIP search method: dynamic search.
Parallel mode: deterministic, using up to 4 threads.
Root relaxation solution time = 0.00 sec. (1.39 ticks)

        Nodes                                         Cuts/
   Node  Left     Objective  IInf  Best Integer    Best Bound    ItCnt     Gap

*     0+    0                            0.0000     3240.0000              --- 
*     0+    0                          532.0000     3240.0000           509.02%
      0     0     1078.7500     5      532.0000     1078.7500      160  102.77%
      0     0      811.4241    88      532.0000     Cuts: 114      320   52.52%
*     0+    0                          668.0000      811.4241            21.47%
      0     0      782.5678   109      668.0000      Cuts: 34      374   17.15%
      0     0      780.3266   159      668.0000      Cuts: 23      398   16.82%
*     0+    0                          773.0000      780.3266             0.95%
      0     0      777.9081   178      773.0000      Cuts: 18      428    0.63%
*     0+    0                          775.0000      777.9081             0.38%
      0     0        cutoff            775.0000      775.0000      428    0.00%
Elapsed time = 0.06 sec. (54.31 ticks, tree = 0.01 MB, solutions = 5)

Clique cuts applied:  115
Cover cuts applied:  13
Implied bound cuts applied:  5
Mixed integer rounding cuts applied:  8

Root node processing (before b&c):
  Real time             =    0.06 sec. (54.36 ticks)
Parallel b&c, 4 threads:
  Real time             =    0.00 sec. (0.00 ticks)
  Sync time (average)   =    0.00 sec.
  Wait time (average)   =    0.00 sec.
                          ------------
Total (root+branch&cut) =    0.06 sec. (54.36 ticks)
